proyfinal/src/viki/013/experimentInOfficeAgust.take6.output/c530922f-f7ff-46a9-9741-b7cb8edb80ff.als.dat
{'cnf.clauses': '118081',
 'cnf.totvars': '69608',
 'conflict literals': '4',
 'conflicts': '4',
 'decisions': '1088',
 'memused.mb': '17.46',
 'outcome': 'UNSAT',
 'propagations': '20645',
 'restarts': '1',
 'solver.msecs': 34,
 'task.msecs': 123}
