proyfinal/src/viki/013/experimentInOfficeAgust.take6.output/c530922f-f7ff-46a9-9741-b7cb8edb80ff.als.out
Reading from standard input... Use '--help' for help.
============================[ Problem Statistics ]=============================
|                                                                             |
|  Number of variables:         69608                                         |
|  Number of clauses:          118081                                         |
|  Parse time:                   0.03 s                                       |
|                                                                             |
============================[ Search Statistics ]==============================
| Conflicts |          ORIGINAL         |          LEARNT          | Progress |
|           |    Vars  Clauses Literals |    Limit  Clauses Lit/Cl |          |
===============================================================================
===============================================================================
restarts              : 1
conflicts             : 4              (117 /sec)
decisions             : 1088           (0.00 % random) (31953 /sec)
propagations          : 20645          (606314 /sec)
conflict literals     : 4              (0.00 % deleted)
Memory used           : 17.46 MB
CPU time              : 0.03405 s

UNSATISFIABLE
